p cnf 14 241
-8 -11 -4 -10 -6 2 3 4 5 6 7 8 9 10 11 12 13 14 0
-5 5 4 12 0
 3 0
-4 -5 8 11 4 5 0
-13 -7 -6 1 6 7 10 13 0
-8 -4 -7 -3 -12 -13 -14 -5 -1 -6 -9 -11 1 2 3 4 5 6 7 8 9 10 11 12 13 14 0
-9 -7 -10 2 3 5 7 8 9 10 12 13 14 0
-7 1 4 9 7 0
-1 -4 -7 1 4 6 7 0
-9 -10 -4 -6 -12 -8 -5 1 2 3 4 5 6 7 8 9 10 11 12 13 14 0
-9 -12 -6 -7 -11 -13 -1 -5 -3 -10 -4 -8 1 2 3 4 5 6 7 8 9 10 11 12 13 14 0
-3 -7 -13 -5 -10 -9 -4 -11 -12 -2 2 3 4 5 7 9 10 11 12 13 0
-8 -14 -9 -13 -2 -11 -3 -10 -4 -5 1 2 3 4 5 6 7 8 9 10 11 12 13 14 0
-11 3 4 7 8 9 10 11 12 13 0
-7 -3 1 2 3 4 5 6 7 8 9 10 11 12 13 14 0
-3 -14 -11 -1 -4 -7 1 2 3 4 7 11 12 13 14 0
 2 3 5 9 10 0
-14 14 0
-14 -10 -9 -13 -5 -2 -4 -8 2 3 4 5 6 8 9 10 11 12 13 14 0
-9 -10 -7 4 5 7 9 10 0
-14 -8 8 10 3 14 0
-12 -8 2 3 5 7 8 9 10 11 12 13 0
 1 2 3 4 8 9 10 11 12 14 0
-14 -8 8 3 14 0
-12 -7 -8 -11 -9 -3 -2 -4 -5 -10 2 3 4 5 6 7 8 9 10 11 12 13 0
-13 1 2 3 4 6 7 8 9 10 11 12 13 14 0
 1 2 4 6 8 10 14 0
-11 -12 -10 11 10 3 12 0
 4 5 9 10 13 0
-13 -2 1 2 3 4 6 7 8 9 10 12 13 0
-5 -13 -9 2 5 6 9 10 11 12 13 14 0
-14 -1 -9 -13 -12 -10 -3 -7 -2 -4 -5 -11 -8 1 2 3 4 5 7 8 9 10 11 12 13 14 0
-8 8 0
-14 -6 -5 -12 2 3 4 5 6 10 12 14 0
 10 6 7 0
-4 -7 -11 -10 1 4 7 10 11 0
-14 -6 -10 -2 1 2 3 4 5 6 7 8 9 10 11 12 13 14 0
-12 -14 -3 -6 3 12 14 6 0
-2 -14 -13 -11 2 5 9 11 13 14 0
-7 -5 -8 -9 -11 1 2 3 4 5 6 7 8 9 10 11 12 13 0
 6 7 0
-4 -5 -9 -8 -3 -1 1 3 4 5 6 7 8 9 13 14 0
-13 -11 -10 -12 -3 -1 -9 1 2 3 5 6 7 8 9 10 11 12 13 14 0
-13 -5 -3 -2 2 3 5 10 13 0
-9 -5 -1 9 5 1 0
-14 -13 -6 -4 -10 -11 -12 -5 -9 1 2 3 4 5 6 7 9 10 11 12 13 14 0
 10 0
-9 -8 8 9 0
 2 14 0
 1 2 3 6 8 9 10 12 13 14 0
-7 -12 -6 -1 -5 -3 1 3 5 6 7 9 12 0
-4 3 4 5 7 12 14 0
-2 -4 -11 -5 -6 -13 2 4 5 6 11 13 0
-10 -9 -4 -13 -12 -3 -14 -5 -8 -11 -1 -7 -6 -2 1 2 3 4 5 6 7 8 9 10 11 12 13 14 0
-6 -2 2 6 7 8 11 12 13 0
-3 -1 -12 -14 -2 -11 1 2 3 4 6 7 8 9 10 11 12 13 14 0
-12 -1 -6 -5 -2 -13 -4 -14 -10 1 2 3 4 5 6 7 8 9 10 11 12 13 14 0
-10 8 9 10 14 0
-13 -7 -4 3 4 6 7 9 10 11 12 13 14 0
 8 1 11 6 0
 5 0
 1 2 3 4 7 8 10 11 12 13 14 0
-6 1 2 3 4 6 8 9 10 13 0
-13 -12 -1 -11 -6 1 2 6 7 8 9 10 11 12 13 14 0
 9 14 0
-9 -4 -3 -8 -11 -1 1 3 4 5 7 8 9 10 11 12 13 14 0
-10 -14 -8 -2 -6 -13 -7 -3 1 2 3 4 6 7 8 10 11 13 14 0
-10 -7 -9 -12 -1 -14 -2 -11 -3 -13 -4 -6 -5 1 2 3 4 5 6 7 9 10 11 12 13 14 0
-7 -1 -8 -10 1 2 3 4 5 6 7 8 9 10 11 12 14 0
-12 -3 -5 1 3 4 5 6 10 12 13 14 0
-11 -7 -5 -2 -10 2 4 5 6 7 10 11 12 14 0
-7 -9 -1 -12 -8 -2 1 2 4 5 7 8 9 12 14 0
-12 2 5 6 8 10 12 0
-5 -6 5 6 0
-2 -8 8 2 0
-11 -2 -7 -5 -6 -13 -3 1 2 3 5 6 7 8 9 11 13 14 0
-13 -11 -12 -2 -1 -6 -10 -14 -5 1 2 3 5 6 8 10 11 12 13 14 0
-10 -2 -12 -5 1 2 3 4 5 6 7 8 9 10 11 12 13 14 0
-11 -2 -12 -3 -5 -4 1 2 3 4 5 11 12 0
-7 2 12 13 7 0
-3 -7 -13 -4 -8 -10 -5 -1 1 3 4 5 7 8 10 13 0
-12 12 0
-1 1 2 3 4 5 8 0
-1 1 4 5 6 7 8 10 11 13 0
-1 -11 -12 -5 -3 -9 -2 -4 -7 -14 1 2 3 4 5 6 7 8 9 10 11 12 13 14 0
-8 -5 -14 -2 -11 2 3 5 6 7 8 9 10 11 13 14 0
-13 -1 -4 -8 1 2 3 4 8 11 13 0
-4 1 2 4 6 8 11 12 14 0
 13 0
-8 -1 -12 -14 -7 -10 -9 -13 -11 -3 1 3 6 7 8 9 10 11 12 13 14 0
-4 -1 -2 1 2 4 12 13 0
-14 1 2 5 8 11 13 14 0
-11 -4 -10 -5 3 4 5 10 11 13 0
-3 -13 -8 -9 -10 -12 -4 -2 -14 2 3 4 8 9 10 12 13 14 0
-7 -10 -6 -3 10 3 6 7 0
 9 5 0
-13 -9 3 4 6 9 12 13 0
-7 8 11 4 7 0
-7 -2 -3 -8 2 3 4 5 6 7 8 9 10 11 12 13 0
-6 -8 -7 -5 -14 -4 -9 2 3 4 5 6 7 8 9 10 11 12 13 14 0
-3 -13 -6 1 2 3 6 12 13 0
-5 4 5 0
-3 3 12 5 6 0
-8 -4 -3 -11 -12 1 3 4 8 9 10 11 12 14 0
 1 0
 1 4 10 11 12 13 14 0
 1 3 4 5 6 8 9 13 14 0
-12 -2 -3 1 2 3 12 0
-13 -6 -11 -12 -9 -1 -2 -5 -14 1 2 3 5 6 7 8 9 11 12 13 14 0
-8 -9 -12 -6 -2 1 2 3 5 6 7 8 9 10 11 12 14 0
-5 -11 -3 -13 -8 -14 3 5 8 11 13 14 0
-12 -14 -2 -9 2 7 9 12 14 0
-4 1 2 4 10 11 13 14 0
-5 -11 -4 -2 -14 -6 -9 -8 1 2 3 4 5 6 7 8 9 10 11 12 13 14 0
 1 2 3 4 5 6 7 8 9 10 11 12 13 14 0
-2 -9 -5 -6 -3 -14 -12 -8 2 3 4 5 6 8 9 10 12 13 14 0
-9 -1 1 2 3 4 6 8 9 11 14 0
 8 9 2 11 0
-8 8 0
-5 -9 1 5 6 8 9 11 0
-13 1 10 5 13 0
 8 2 13 7 0
-8 8 0
-14 -9 3 4 9 10 14 0
-8 -7 8 3 7 0
-14 -8 1 3 4 5 6 7 8 9 10 11 12 13 14 0
 8 10 4 7 0
-3 -10 10 3 0
 2 3 4 5 7 13 14 0
-12 -8 -14 -4 -10 -3 -2 -9 -6 1 2 3 4 5 6 7 8 9 10 11 12 13 14 0
-6 -7 -4 -13 -12 4 6 7 11 12 13 0
-14 -12 3 4 5 6 7 8 10 12 14 0
-9 -4 -5 -7 -13 -10 -3 -8 -12 1 2 3 4 5 6 7 8 9 10 11 12 13 14 0
-10 3 4 5 10 13 0
 3 5 6 7 8 9 11 12 13 14 0
-3 -5 -2 -4 -6 -11 -1 1 2 3 4 5 6 11 0
-4 4 0
-1 -10 -6 1 10 6 0
-13 -11 -5 -4 -10 -14 1 2 3 4 5 6 7 8 10 11 12 13 14 0
 10 0
-1 -12 -9 1 2 5 6 7 9 11 12 0
-9 -13 -6 -2 -11 -5 -7 -14 -4 -8 -12 -1 1 2 3 4 5 6 7 8 9 10 11 12 13 14 0
-9 6 8 9 11 12 13 0
-3 -5 -2 -13 2 3 4 5 6 8 10 11 13 0
-9 1 3 6 9 14 0
-1 -8 -13 -12 -6 -11 -10 1 2 3 4 5 6 7 8 9 10 11 12 13 0
-14 -10 -2 -5 -7 -13 -9 -1 -8 -3 1 2 3 4 5 7 8 9 10 13 14 0
-2 -14 -5 1 2 3 4 5 8 9 10 11 12 13 14 0
 11 5 0
 2 6 0
-13 -14 -4 1 2 3 4 5 6 8 9 10 11 12 13 14 0
-14 -5 1 5 14 0
-14 -9 -8 -1 -13 -3 -12 1 3 4 7 8 9 11 12 13 14 0
-4 -2 2 3 4 5 7 9 10 11 14 0
 1 5 0
-2 -7 -6 -13 -14 -12 -10 2 3 6 7 10 12 13 14 0
-6 -2 -11 -12 -9 2 5 6 7 9 10 11 12 0
-11 -10 -5 -6 -13 -2 -12 -14 1 2 3 4 5 6 7 9 10 11 12 13 14 0
 3 5 6 9 10 0
-3 -13 -10 -11 1 2 3 6 7 9 10 11 12 13 0
-7 1 7 0
-7 1 14 7 0
-6 -4 -3 -7 -2 -14 -12 1 2 3 4 5 6 7 9 10 11 12 13 14 0
-11 3 11 0
-2 2 12 5 0
-4 -2 2 4 0
 9 0
-10 -12 -13 10 12 13 0
-5 -13 1 2 3 4 5 6 7 9 10 11 13 0
 9 6 0
-10 3 4 5 7 9 10 12 0
-1 -13 -8 -7 -9 1 2 4 7 8 9 11 13 0
-13 1 2 4 5 13 0
-8 -11 -9 -1 -12 -3 -7 1 2 3 4 5 6 7 8 9 10 11 12 13 0
-12 -2 -10 1 2 3 6 7 10 11 12 0
-1 -7 -12 -13 1 2 3 5 7 10 11 12 13 0
-7 -11 1 5 7 10 11 0
-6 -13 -2 -5 -12 -7 1 2 3 5 6 7 8 9 10 11 12 13 14 0
-3 -6 -12 3 12 6 0
-6 -3 -12 -9 -5 -11 3 5 6 9 11 12 0
-8 -4 -2 -7 -14 -3 -9 -1 -13 -5 -11 -6 -12 1 2 3 4 5 6 7 8 9 10 11 12 13 14 0
-5 -1 -6 -13 -2 -12 -9 -4 1 2 3 4 5 6 9 12 13 0
-2 -12 -11 -14 -13 -10 -4 1 2 3 4 5 6 7 8 9 10 11 12 13 14 0
-6 1 6 0
-14 -3 -13 -2 -6 2 3 5 6 7 9 10 13 14 0
-14 -13 3 13 14 0
-9 -11 -3 -5 -10 -13 -2 -14 -8 -7 -6 2 3 4 5 6 7 8 9 10 11 12 13 14 0
-7 -2 2 7 0
-11 -9 -6 1 2 6 7 9 10 11 13 14 0
 1 5 9 10 12 0
-4 -9 -6 -1 1 4 6 7 9 10 11 12 0
 3 4 14 7 0
-5 -14 8 5 14 0
-5 -4 -7 -6 2 4 5 6 7 8 10 11 12 13 0
-3 -4 -7 -10 -14 -5 -2 -12 -13 -6 -1 1 2 3 4 5 6 7 10 12 13 14 0
-1 -12 1 2 3 4 5 6 7 8 9 10 11 12 13 14 0
-9 -7 -1 -5 -8 -13 -14 1 2 5 7 8 9 11 12 13 14 0
-13 -11 11 13 0
 1 3 4 5 6 7 8 9 11 12 13 14 0
-10 -2 -8 -7 1 2 3 4 6 7 8 10 11 14 0
 1 3 4 6 7 8 9 10 13 14 0
-10 -5 -6 -4 -9 -7 -8 -3 -11 -1 -2 1 2 3 4 5 6 7 8 9 10 11 12 13 14 0
-11 1 11 0
-4 -11 11 4 0
-12 -14 -5 -10 -9 1 3 4 5 9 10 11 12 14 0
 4 0
-12 -11 -2 -10 -8 -6 -9 -13 2 3 4 5 6 7 8 9 10 11 12 13 14 0
-7 3 4 5 7 12 13 14 0
-6 -8 -13 3 6 8 12 13 0
-13 -9 -1 -6 -7 -8 -4 -12 -11 1 4 5 6 7 8 9 11 12 13 14 0
-9 -8 -1 -6 1 6 8 9 10 14 0
-11 -12 -14 1 3 4 10 11 12 13 14 0
-10 -11 -7 -14 10 11 14 7 0
 2 3 5 7 8 9 12 14 0
-7 -6 -14 11 7 14 6 0
-8 8 0
-2 -14 1 2 3 6 10 11 12 13 14 0
-9 -8 -4 -10 1 2 3 4 5 6 7 8 9 10 11 12 13 14 0
-3 -4 -6 -2 -1 -5 1 2 3 4 5 6 11 12 14 0
-10 -14 -4 -7 2 4 5 7 8 9 10 11 14 0
 3 4 6 7 9 10 0
-10 10 0
-12 -6 -9 -3 -11 -10 -2 -7 -1 1 2 3 6 7 9 10 11 12 0
 1 14 9 0
-8 -14 -13 -7 -3 3 4 7 8 13 14 0
 9 5 0
-13 -12 -4 -6 -10 -7 2 4 5 6 7 10 12 13 0
-1 -13 -4 -7 1 4 7 8 13 0
-2 2 12 6 0
-1 1 3 5 6 7 8 9 10 12 14 0
